SCIP version 5.0.0 [precision: 8 byte] [memory: block] [mode: optimized] [LP solver: NONE] [GitHash: 3bbd232]
Copyright (C) 2002-2017 Konrad-Zuse-Zentrum fuer Informationstechnik Berlin (ZIB)

External codes: 
  Readline EditLine w  GNU library for command line editing (gnu.org/s/readline)
  CppAD 20160000.1     Algorithmic Differentiation of C++ algorithms developed by B. Bell (www.coin-or.org/CppAD)
  ZLIB 1.2.5           General purpose compression library by J. Gailly and M. Adler (zlib.net)
  GMP 6.1.2            GNU Multiple Precision Arithmetic Library developed by T. Granlund (gmplib.org)

user parameter file <scip.set> not found - using default parameters

read problem <../../Split_data/output/parkin/7/0_sample_parkin.logreg>
============

File name	:	../../Split_data/output/parkin/7/0_sample_parkin.logreg
Problem name 	:	0_sample_parkin
Number of data	:	156
Number of var	:	22
The given data has linear independence

[dim=1] time: 0.003642
[dim=2] time: 0.008317
[dim=3] time: 0.010988
[dim=4] time: 0.013252
[dim=5] time: 0.015391
[dim=6] time: 0.017661
[dim=7] Time of forward = 0.019698sec.
AIC: 102.901
k: 6

[dim=22] time: 0.0448
[dim=21] time: 0.182795
[dim=20] time: 0.205643
[dim=19] time: 0.210001
[dim=18] time: 0.213505
[dim=17] time: 0.216777
[dim=16] time: 0.219791
[dim=15] time: 0.22214
[dim=14] time: 0.223989
[dim=13] time: 0.22648
[dim=12] time: 0.23046
[dim=11] time: 0.232711
[dim=10] time: 0.234125
[dim=9] Time of backward = 0.236168sec.
AIC: 90.6814
k: 10
